; benchmark generated from python API
(set-info :status unknown)
(declare-datatypes ((RealState 0)) (((RMk1 (rval1 Real)) (RMk2 (rval2 Real)))))
 (assert
 (forall ((|v17:0| Real) )(forall ((|v16:1| Real) )(forall ((|v15:2| Real) )(forall ((|v14:3| Real) )(forall ((|v13:4| Real) )(forall ((|v12:5| Real) )(exists ((|v11:6_st| RealState) (val!7290 Real) )(exists ((|v10:7_st| RealState) (val!7291 Real) )(exists ((|v9:8_st| RealState) (val!7292 Real) )(exists ((|v8:9_st| RealState) (val!7293 Real) )(exists ((|v7:10_st| RealState) (val!7294 Real) )(exists ((|v6:11_st| RealState) (val!7295 Real) )(forall ((|v5:12| Real) )(forall ((|v4:13| Real) )(forall ((|v3:14| Real) )(forall ((|v2:15| Real) )(forall ((|v1:16| Real) )(forall ((|v0:17| Real) )(let ((?x1511 (* 14.0 |v14:3|)))
 (let ((?x2604 (* 13.0 |v12:5|)))
 (let ((?x2595 (+ (+ (+ (* (- 16.0) |v15:2|) (* (- 11.0) (rval2 |v9:8_st|))) ?x2604) ?x1511)))
 (let ((?x2850 (- 10.0)))
 (let ((?x424 (rval2 |v7:10_st|)))
 (let ((?x171 (* 18.0 ?x424)))
 (let ((?x999 (+ (+ (+ (* 8.0 |v1:16|) (* (- 11.0) (rval2 |v11:6_st|))) (* 5.0 |v4:13|)) ?x171)))
 (let ((?x3323 (- 11.0)))
 (let ((?x2301 (* 12.0 |v13:4|)))
 (let ((?x1462 (+ (+ (+ (* (- 9.0) |v14:3|) (* 18.0 |v14:3|)) (* 18.0 |v2:15|)) ?x2301)))
 (let ((?x3074 (- 2.0)))
 (let ((?x394 (* 11.0 |v2:15|)))
 (let ((?x1568 (rval2 |v8:9_st|)))
 (let ((?x407 (* 17.0 ?x1568)))
 (let ((?x1138 (- 8.0)))
 (let ((?x865 (* ?x1138 |v3:14|)))
 (let ((?x638 (+ (* (- 1.0) |v3:14|) ?x865)))
 (let (($x168 (or (and (<= (+ (+ ?x638 ?x407) ?x394) ?x3074) (<= ?x1462 ?x3323)) (and (<= ?x999 ?x2850) (<= ?x2595 18.0)))))
 (let ((?x2214 (- 19.0)))
 (let ((?x1447 (* 17.0 |v2:15|)))
 (let (($x2516 (<= (+ (+ (+ (* ?x2850 |v17:0|) (* 5.0 |v3:14|)) (* (- 7.0) |v2:15|)) ?x1447) ?x2214)))
 (let ((?x2433 (+ (+ (+ (* 20.0 |v2:15|) (* (- 15.0) |v14:3|)) (* 0.0 |v5:12|)) (* 11.0 ?x1568))))
 (let ((?x2032 (+ (+ (* (- 12.0) |v5:12|) (* (- 13.0) (rval2 |v6:11_st|))) (* (- 18.0) |v15:2|))))
 (let (($x1292 (and (and (<= (+ ?x2032 (* ?x3323 |v15:2|)) 8.0) (or (<= ?x2433 12.0) $x2516)) $x168)))
 (let ((?x1629 (* 13.0 |v16:1|)))
 (let (($x3438 (<= (+ (+ (+ (* 12.0 |v4:13|) (rval2 |v6:11_st|)) (* 4.0 ?x424)) ?x1629) 7.0)))
 (let ((?x210 (rval2 |v10:7_st|)))
 (let ((?x2358 (* 4.0 ?x210)))
 (let ((?x1921 (+ (+ (+ (* 0.0 ?x1568) (* 20.0 ?x424)) (* (- 9.0) |v14:3|)) ?x2358)))
 (let ((?x1782 (- 20.0)))
 (let ((?x633 (* ?x1782 |v4:13|)))
 (let ((?x1064 (+ (+ (+ (* 3.0 |v2:15|) (* (- 4.0) |v2:15|)) (* (- 4.0) |v12:5|)) ?x633)))
 (let ((?x186 (* 10.0 |v5:12|)))
 (let ((?x1976 (+ (+ (* 14.0 (rval2 |v9:8_st|)) (* 11.0 |v3:14|)) (* ?x1138 (rval2 |v11:6_st|)))))
 (let (($x2210 (or (or (<= (+ ?x1976 ?x186) 1.0) (<= ?x1064 7.0)) (and (<= ?x1921 12.0) $x3438))))
 (let ((?x3255 (+ (+ (+ (* ?x3074 |v1:16|) (* (- 12.0) ?x210)) (* 12.0 |v3:14|)) (* 9.0 |v15:2|))))
 (let ((?x356 (- 12.0)))
 (let ((?x2938 (+ (+ (* (- 14.0) |v15:2|) (* 7.0 (rval2 |v6:11_st|))) (* (- 16.0) ?x1568))))
 (let ((?x2610 (+ (+ (+ (* 15.0 |v0:17|) (* 8.0 |v2:15|)) (* 0.0 |v13:4|)) (* ?x356 ?x424))))
 (let ((?x1910 (* ?x356 |v5:12|)))
 (let ((?x2874 (+ (+ (* (- 7.0) |v3:14|) (* 12.0 |v2:15|)) ?x1910)))
 (let (($x1401 (and (and (<= (+ ?x2874 (* (- 15.0) |v17:0|)) 11.0) (<= ?x2610 14.0)) (or (<= (+ ?x2938 (* ?x1782 (rval2 |v9:8_st|))) ?x356) (<= ?x3255 11.0)))))
 (let ((?x2307 (+ (+ (+ (* (- 7.0) (rval2 |v9:8_st|)) (* ?x3074 |v0:17|)) (* 11.0 |v5:12|)) (* (- 5.0) ?x210))))
 (let ((?x1950 (- 3.0)))
 (let ((?x244 (* ?x1950 |v2:15|)))
 (let ((?x2491 (+ (+ (+ (* (- 13.0) |v3:14|) (* (- 1.0) |v0:17|)) (* 18.0 |v12:5|)) ?x244)))
 (let ((?x2798 (* 0.0 |v13:4|)))
 (let ((?x320 (+ (+ (+ (* 10.0 |v1:16|) (* ?x3323 (rval2 |v6:11_st|))) (* 13.0 |v15:2|)) ?x2798)))
 (let ((?x1512 (* 10.0 |v0:17|)))
 (let ((?x1602 (+ (+ (+ (* (- 9.0) |v4:13|) (* 6.0 (rval2 |v9:8_st|))) (* 4.0 |v13:4|)) ?x1512)))
 (let (($x1575 (or (and (<= ?x1602 ?x3074) (<= ?x320 3.0)) (and (<= ?x2491 ?x356) (<= ?x2307 16.0)))))
 (let ((?x485 (- 18.0)))
 (let ((?x3252 (* ?x485 |v5:12|)))
 (let (($x2791 (<= (+ (+ (+ (* 2.0 |v5:12|) (* ?x2214 |v12:5|)) (* ?x2214 |v0:17|)) ?x3252) 12.0)))
 (let ((?x527 (- 13.0)))
 (let ((?x2728 (rval2 |v11:6_st|)))
 (let ((?x1909 (* 20.0 ?x2728)))
 (let (($x756 (<= (+ (+ (+ (* 16.0 |v12:5|) (* 8.0 |v16:1|)) (* ?x527 |v1:16|)) ?x1909) ?x527)))
 (let ((?x3502 (+ (+ (+ (* 2.0 |v2:15|) (* 15.0 ?x424)) (* 7.0 |v1:16|)) (* 8.0 ?x424))))
 (let ((?x677 (- 9.0)))
 (let ((?x812 (* 15.0 ?x210)))
 (let ((?x3034 (+ (+ (+ (* 16.0 |v4:13|) (* 11.0 |v13:4|)) (* ?x677 (rval2 |v6:11_st|))) ?x812)))
 (let (($x453 (and (and (and (<= ?x3034 ?x677) (<= ?x3502 10.0)) (and $x756 $x2791)) $x1575)))
 (let (($x101 (<= (+ (+ (+ (* ?x3074 |v4:13|) ?x2798) (* (- 6.0) |v3:14|)) (* 12.0 |v2:15|)) 15.0)))
 (let ((?x3232 (+ (+ (+ ?x865 (* 2.0 |v14:3|)) (* 2.0 |v14:3|)) (* (- 17.0) |v12:5|))))
 (let ((?x903 (+ (+ (+ |v15:2| (* 15.0 |v13:4|)) (* 18.0 |v1:16|)) (* (- 14.0) ?x210))))
 (let ((?x539 (- 7.0)))
 (let ((?x867 (* ?x539 |v4:13|)))
 (let (($x220 (<= (+ (+ (+ (* 6.0 |v14:3|) (* ?x1782 |v13:4|)) (* 16.0 ?x210)) ?x867) 9.0)))
 (let ((?x2992 (- 16.0)))
 (let ((?x383 (+ (+ (* (- 5.0) |v4:13|) (* ?x1950 (rval2 |v6:11_st|))) (* (- 5.0) ?x424))))
 (let ((?x2795 (* 6.0 |v0:17|)))
 (let (($x3024 (<= (+ (+ (+ (* 2.0 |v17:0|) (* 19.0 |v12:5|)) (* 17.0 |v0:17|)) ?x2795) 18.0)))
 (let ((?x1707 (+ (+ (+ (* 10.0 (rval2 |v6:11_st|)) (* 15.0 |v12:5|)) (* 3.0 |v16:1|)) (* ?x1138 |v13:4|))))
 (let (($x2113 (and (or (<= ?x1707 ?x3074) $x3024) (<= (+ ?x383 (* 0.0 (rval2 |v9:8_st|))) ?x2992))))
 (let (($x2386 (and $x2113 (and (or $x220 (<= ?x903 20.0)) (or (<= ?x3232 3.0) $x101)))))
 (let (($x2935 (<= (+ (+ (+ ?x1511 (* ?x2992 ?x210)) (* ?x2992 |v17:0|)) (* ?x539 |v13:4|)) 4.0)))
 (let ((?x1487 (* 7.0 |v13:4|)))
 (let ((?x1962 (+ (+ (* 6.0 |v1:16|) (* 5.0 |v2:15|)) (* 6.0 |v2:15|))))
 (let ((?x2923 (+ (+ (+ (* 0.0 (rval2 |v6:11_st|)) (* 3.0 |v12:5|)) (* ?x2850 ?x2728)) (* (- 14.0) |v17:0|))))
 (let ((?x765 (- 4.0)))
 (let ((?x204 (* 13.0 |v1:16|)))
 (let ((?x162 (+ (+ (* 17.0 |v1:16|) (* (- 5.0) ?x1568)) (* (- 6.0) (rval2 |v6:11_st|)))))
 (let (($x2719 (and (and (<= (+ ?x162 ?x204) ?x765) (<= ?x2923 12.0)) (or (<= (+ ?x1962 ?x1487) 16.0) $x2935))))
 (let ((?x1903 (- 14.0)))
 (let ((?x1380 (* ?x356 ?x210)))
 (let (($x2710 (<= (+ (+ (+ (* (- 6.0) |v17:0|) (* ?x1782 |v0:17|)) (* ?x3323 |v14:3|)) ?x1380) ?x1903)))
 (let ((?x1378 (* 7.0 |v1:16|)))
 (let (($x2310 (<= (+ (+ (+ (* 18.0 (rval2 |v9:8_st|)) ?x2798) (* 5.0 |v16:1|)) ?x1378) 4.0)))
 (let ((?x1637 (* 5.0 ?x424)))
 (let (($x2792 (<= (+ (+ (+ (* 5.0 |v14:3|) (* ?x527 |v15:2|)) (* ?x1950 ?x424)) ?x1637) 2.0)))
 (let ((?x2393 (- 1.0)))
 (let ((?x458 (* ?x2393 ?x2728)))
 (let (($x536 (<= (+ (+ (+ (* ?x1782 |v16:1|) (rval2 |v6:11_st|)) (* 12.0 |v16:1|)) ?x458) ?x539)))
 (let ((?x1181 (* 15.0 ?x424)))
 (let (($x2818 (<= (+ (+ (+ (* 16.0 |v16:1|) (* (- 17.0) |v5:12|)) (* ?x527 |v2:15|)) ?x1181) 6.0)))
 (let (($x112 (or $x2818 (<= (+ (+ (+ ?x458 (* 8.0 |v4:13|)) |v15:2|) (* ?x1903 ?x424)) ?x2992))))
 (let ((?x2965 (+ (+ (+ (* 2.0 |v0:17|) (* ?x1903 |v14:3|)) (* ?x3074 |v2:15|)) (* (- 6.0) (rval2 |v9:8_st|)))))
 (let ((?x3100 (+ (+ (+ (* 18.0 |v17:0|) (* 0.0 |v12:5|)) (* ?x2214 |v5:12|)) (* 11.0 ?x2728))))
 (let ((?x1041 (- 6.0)))
 (let ((?x2456 (* 20.0 |v16:1|)))
 (let (($x197 (<= (+ (+ (+ (* 0.0 ?x424) (* ?x677 |v12:5|)) (* 6.0 ?x2728)) ?x2456) ?x1041)))
 (let (($x2371 (<= (+ (+ (+ (* ?x3323 |v12:5|) ?x1512) (* ?x3323 |v4:13|)) (* 8.0 |v1:16|)) 4.0)))
 (let ((?x251 (+ (+ (+ (* ?x3323 ?x210) (* 2.0 ?x210)) (* 4.0 |v1:16|)) (* ?x527 ?x210))))
 (let ((?x395 (+ (+ (+ (* 11.0 (rval2 |v6:11_st|)) ?x2604) (* 13.0 |v15:2|)) (* ?x1950 ?x1568))))
 (let (($x318 (or (and (and (<= ?x395 8.0) (<= ?x251 ?x1782)) (or $x2371 $x197)) (or (and (<= ?x3100 ?x1138) (<= ?x2965 ?x2850)) $x112))))
 (let (($x1554 (<= (+ (+ (+ |v2:15| (* 17.0 |v12:5|)) (* 17.0 |v14:3|)) (* 13.0 |v17:0|)) 3.0)))
 (let (($x2106 (or (or $x1554 (and $x318 (or (or (and $x536 $x2792) (or $x2310 $x2710)) $x2719))) (and (or $x2386 $x453) (or (or $x1401 $x2210) $x1292)))))
 (let (($x785 (not (= |v6:11_st| (RMk1 val!7295)))))
 (let (($x1017 (not (= |v7:10_st| (RMk1 val!7294)))))
 (let (($x2912 (not (= |v8:9_st| (RMk1 val!7293)))))
 (let (($x2702 (not (= |v9:8_st| (RMk1 val!7292)))))
 (let (($x1978 (not (= |v10:7_st| (RMk1 val!7291)))))
 (let (($x891 (not (= |v11:6_st| (RMk1 val!7290)))))
 (and $x891 $x1978 $x2702 $x2912 $x1017 $x785 $x2106))))))))))))))))))))))))))))))))))))))))))))))))))))))))))))))))))))))))))))))))))))))))))))))))))))))))))))))))))))
 )
 )
 )
 )
 )
 )
 )
 )
 )
 )
 )
 )
 )
 )
 )
 )
 )
 )
(check-sat)
